
n_res = 4;
rcap = [30, 30, 1329, 1333];
rtype = [1, 1, 2, 2];
n_tasks = 100;
modes =  [{1, 2, 3, 4, 5, 6, 7, 8, 9}, {10, 11, 12, 13, 14, 15, 16, 17, 18}, {19, 20, 21, 22, 23, 24, 25, 26, 27}, {28, 29, 30, 31, 32, 33, 34, 35, 36}, {37, 38, 39, 40, 41, 42, 43, 44, 45}, {46, 47, 48, 49, 50, 51, 52, 53, 54}, {55, 56, 57, 58, 59, 60, 61, 62, 63}, {64, 65, 66, 67, 68, 69, 70, 71, 72}, {73, 74, 75, 76, 77, 78, 79, 80, 81}, {82, 83, 84, 85, 86, 87, 88, 89, 90}, {91, 92, 93, 94, 95, 96, 97, 98, 99}, {100, 101, 102, 103, 104, 105, 106, 107, 108}, {109, 110, 111, 112, 113, 114, 115, 116, 117}, {118, 119, 120, 121, 122, 123, 124, 125, 126}, {127, 128, 129, 130, 131, 132, 133, 134, 135}, {136, 137, 138, 139, 140, 141, 142, 143, 144}, {145, 146, 147, 148, 149, 150, 151, 152, 153}, {154, 155, 156, 157, 158, 159, 160, 161, 162}, {163, 164, 165, 166, 167, 168, 169, 170, 171}, {172, 173, 174, 175, 176, 177, 178, 179, 180}, {181, 182, 183, 184, 185, 186, 187, 188, 189}, {190, 191, 192, 193, 194, 195, 196, 197, 198}, {199, 200, 201, 202, 203, 204, 205, 206, 207}, {208, 209, 210, 211, 212, 213, 214, 215, 216}, {217, 218, 219, 220, 221, 222, 223, 224, 225}, {226, 227, 228, 229, 230, 231, 232, 233, 234}, {235, 236, 237, 238, 239, 240, 241, 242, 243}, {244, 245, 246, 247, 248, 249, 250, 251, 252}, {253, 254, 255, 256, 257, 258, 259, 260, 261}, {262, 263, 264, 265, 266, 267, 268, 269, 270}, {271, 272, 273, 274, 275, 276, 277, 278, 279}, {280, 281, 282, 283, 284, 285, 286, 287, 288}, {289, 290, 291, 292, 293, 294, 295, 296, 297}, {298, 299, 300, 301, 302, 303, 304, 305, 306}, {307, 308, 309, 310, 311, 312, 313, 314, 315}, {316, 317, 318, 319, 320, 321, 322, 323, 324}, {325, 326, 327, 328, 329, 330, 331, 332, 333}, {334, 335, 336, 337, 338, 339, 340, 341, 342}, {343, 344, 345, 346, 347, 348, 349, 350, 351}, {352, 353, 354, 355, 356, 357, 358, 359, 360}, {361, 362, 363, 364, 365, 366, 367, 368, 369}, {370, 371, 372, 373, 374, 375, 376, 377, 378}, {379, 380, 381, 382, 383, 384, 385, 386, 387}, {388, 389, 390, 391, 392, 393, 394, 395, 396}, {397, 398, 399, 400, 401, 402, 403, 404, 405}, {406, 407, 408, 409, 410, 411, 412, 413, 414}, {415, 416, 417, 418, 419, 420, 421, 422, 423}, {424, 425, 426, 427, 428, 429, 430, 431, 432}, {433, 434, 435, 436, 437, 438, 439, 440, 441}, {442, 443, 444, 445, 446, 447, 448, 449, 450}, {451, 452, 453, 454, 455, 456, 457, 458, 459}, {460, 461, 462, 463, 464, 465, 466, 467, 468}, {469, 470, 471, 472, 473, 474, 475, 476, 477}, {478, 479, 480, 481, 482, 483, 484, 485, 486}, {487, 488, 489, 490, 491, 492, 493, 494, 495}, {496, 497, 498, 499, 500, 501, 502, 503, 504}, {505, 506, 507, 508, 509, 510, 511, 512, 513}, {514, 515, 516, 517, 518, 519, 520, 521, 522}, {523, 524, 525, 526, 527, 528, 529, 530, 531}, {532, 533, 534, 535, 536, 537, 538, 539, 540}, {541, 542, 543, 544, 545, 546, 547, 548, 549}, {550, 551, 552, 553, 554, 555, 556, 557, 558}, {559, 560, 561, 562, 563, 564, 565, 566, 567}, {568, 569, 570, 571, 572, 573, 574, 575, 576}, {577, 578, 579, 580, 581, 582, 583, 584, 585}, {586, 587, 588, 589, 590, 591, 592, 593, 594}, {595, 596, 597, 598, 599, 600, 601, 602, 603}, {604, 605, 606, 607, 608, 609, 610, 611, 612}, {613, 614, 615, 616, 617, 618, 619, 620, 621}, {622, 623, 624, 625, 626, 627, 628, 629, 630}, {631, 632, 633, 634, 635, 636, 637, 638, 639}, {640, 641, 642, 643, 644, 645, 646, 647, 648}, {649, 650, 651, 652, 653, 654, 655, 656, 657}, {658, 659, 660, 661, 662, 663, 664, 665, 666}, {667, 668, 669, 670, 671, 672, 673, 674, 675}, {676, 677, 678, 679, 680, 681, 682, 683, 684}, {685, 686, 687, 688, 689, 690, 691, 692, 693}, {694, 695, 696, 697, 698, 699, 700, 701, 702}, {703, 704, 705, 706, 707, 708, 709, 710, 711}, {712, 713, 714, 715, 716, 717, 718, 719, 720}, {721, 722, 723, 724, 725, 726, 727, 728, 729}, {730, 731, 732, 733, 734, 735, 736, 737, 738}, {739, 740, 741, 742, 743, 744, 745, 746, 747}, {748, 749, 750, 751, 752, 753, 754, 755, 756}, {757, 758, 759, 760, 761, 762, 763, 764, 765}, {766, 767, 768, 769, 770, 771, 772, 773, 774}, {775, 776, 777, 778, 779, 780, 781, 782, 783}, {784, 785, 786, 787, 788, 789, 790, 791, 792}, {793, 794, 795, 796, 797, 798, 799, 800, 801}, {802, 803, 804, 805, 806, 807, 808, 809, 810}, {811, 812, 813, 814, 815, 816, 817, 818, 819}, {820, 821, 822, 823, 824, 825, 826, 827, 828}, {829, 830, 831, 832, 833, 834, 835, 836, 837}, {838, 839, 840, 841, 842, 843, 844, 845, 846}, {847, 848, 849, 850, 851, 852, 853, 854, 855}, {856, 857, 858, 859, 860, 861, 862, 863, 864}, {865, 866, 867, 868, 869, 870, 871, 872, 873}, {874, 875, 876, 877, 878, 879, 880, 881, 882}, {883, 884, 885, 886, 887, 888, 889, 890, 891}, {892, 893, 894, 895, 896, 897, 898, 899, 900}];
succ =  [{43, 40, 35, 29, 27, 21, 19, 17, 16}, {57, 48, 46, 39, 37, 36, 35, 34, 33, 30, 28, 22, 18}, {43, 31, 21, 13, 12}, {62, 50, 44, 41, 40, 38, 36, 33, 32, 30, 29, 23}, {62, 50, 41, 36, 32, 30, 27, 15}, {63, 61, 58, 54, 52, 46, 44, 42, 41, 40, 33, 25}, {62, 57, 54, 50, 44, 36, 33, 24}, {66, 62, 57, 53, 50, 49, 48, 46, 44, 43, 41, 32, 27}, {61, 57, 55, 49, 48, 47, 45, 44, 43, 30, 28, 26}, {62, 57, 51, 50, 49, 44, 41, 38, 30, 27}, {62, 61, 58, 57, 54, 51, 50, 44, 40, 33, 31}, {66, 58, 54, 52, 47, 42, 36, 25}, {62, 49, 48, 47, 46, 44, 42, 30, 27}, {75, 62, 61, 60, 59, 58, 57, 55, 52, 51, 50, 44, 41, 28}, {64, 63, 59, 58, 55, 52, 51, 49, 46, 44, 42, 29}, {66, 63, 58, 57, 54, 51, 50, 49, 47, 42, 41, 37}, {62, 61, 59, 55, 54, 50, 49, 48, 46, 45, 42, 30}, {66, 61, 55, 54, 53, 50, 49, 47, 44, 42, 41, 32}, {66, 59, 53, 48, 47, 42, 36, 32}, {66, 65, 53, 50, 49, 32, 27}, {73, 66, 61, 59, 58, 55, 54, 49, 47, 42, 32}, {75, 66, 65, 63, 61, 60, 59, 58, 54, 53, 52, 49, 45, 44, 41}, {100, 73, 70, 69, 66, 61, 60, 58, 52, 49, 46, 43, 42}, {80, 74, 66, 61, 60, 58, 55, 53, 52, 49, 42, 41}, {65, 64, 62, 55, 50, 49, 29}, {75, 74, 63, 62, 60, 53, 52, 50, 41}, {79, 75, 73, 63, 61, 60, 59, 58, 55, 54, 45}, {100, 80, 74, 71, 70, 68, 66, 65, 64, 63, 56, 54, 53}, {100, 78, 74, 69, 60, 57, 53, 48, 45}, {100, 80, 74, 72, 71, 70, 66, 65, 64, 58, 53, 52}, {100, 75, 74, 71, 69, 64, 63, 60, 55, 53, 52}, {100, 75, 74, 64, 63, 60, 56, 52, 45}, {74, 60, 59, 47, 45}, {82, 74, 73, 72, 69, 65, 55, 50, 49}, {96, 82, 81, 80, 79, 75, 74, 73, 71, 70, 69, 68, 67, 64, 60}, {99, 80, 75, 69, 63, 61, 51, 49}, {100, 75, 74, 64, 62, 55, 53, 52}, {100, 80, 66, 65, 55, 54, 52, 48}, {100, 74, 72, 69, 50, 49}, {99, 80, 69, 66, 60, 49}, {100, 94, 93, 82, 79, 73, 70, 69, 68, 67, 64}, {99, 98, 97, 95, 92, 78, 75, 71, 65, 56}, {95, 94, 93, 72, 67, 65, 64, 63}, {100, 97, 96, 95, 94, 93, 90, 89, 88, 82, 81, 77, 76, 74, 73, 70, 69}, {99, 97, 96, 93, 82, 81, 80, 72, 71, 70, 68, 67}, {99, 98, 97, 95, 94, 93, 82, 81, 80, 78, 74, 72, 68}, {95, 89, 82, 75, 70, 69, 68, 65}, {99, 98, 97, 96, 95, 92, 90, 87, 81, 79, 76, 75, 67}, {97, 92, 81, 79, 78, 68, 56}, {99, 96, 95, 93, 88, 80, 78, 76, 71, 70}, {94, 93, 91, 90, 82, 81, 79, 77, 73, 72, 68}, {99, 97, 94, 90, 87, 81, 79, 68, 67}, {98, 96, 95, 94, 91, 89, 85, 82, 79, 73}, {93, 91, 88, 82, 78, 77, 69}, {99, 93, 91, 90, 89, 88, 87, 77, 68}, {96, 94, 90, 87, 76, 67}, {96, 95, 93, 90, 89, 83, 77, 76, 73}, {97, 93, 92, 87, 85, 67}, {100, 98, 95, 94, 93, 90, 87, 86, 83, 78}, {95, 94, 93, 92, 88, 84, 76, 72}, {95, 94, 92, 90, 88, 83, 78, 77}, {94, 93, 88, 87, 84, 81, 80, 76}, {98, 97, 96, 92, 91, 89, 87, 85, 84, 83}, {99, 97, 90, 84, 78, 76}, {90, 85, 81, 79, 77}, {96, 91, 90, 88, 84, 82}, {91, 89, 88, 83, 77}, {84, 83, 76}, {98, 87, 84, 83}, {92, 91, 87, 85}, {94, 85, 84, 83}, {87, 85, 83}, {87, 86, 84}, {92, 91, 86}, {93, 86, 83}, {86, 85}, {86, 84}, {89, 85}, {88, 83}, {90, 83}, {83}, {92}, {}, {}, {}, {}, {}, {}, {}, {}, {}, {}, {}, {}, {}, {}, {}, {}, {}, {}];
n_opt = 900;
dur = [13, 19, 20, 21, 22, 25, 26, 27, 28, 2, 7, 11, 12, 13, 14, 15, 24, 30, 1, 5, 13, 15, 16, 19, 22, 25, 30, 2, 9, 12, 13, 14, 19, 20, 21, 24, 5, 7, 8, 12, 14, 15, 16, 18, 25, 2, 5, 6, 7, 9, 16, 24, 27, 28, 1, 14, 15, 18, 20, 23, 24, 25, 30, 1, 16, 17, 18, 19, 20, 21, 22, 27, 1, 2, 10, 12, 13, 14, 15, 19, 27, 2, 8, 9, 10, 11, 12, 19, 22, 25, 3, 5, 8, 17, 21, 24, 25, 26, 30, 1, 4, 5, 6, 9, 14, 20, 23, 30, 3, 12, 21, 22, 23, 24, 28, 29, 30, 9, 15, 16, 19, 21, 22, 28, 29, 30, 4, 5, 10, 15, 18, 20, 23, 25, 29, 5, 7, 14, 17, 18, 19, 23, 25, 30, 4, 14, 17, 25, 26, 27, 28, 29, 30, 6, 12, 13, 19, 20, 23, 24, 27, 28, 3, 5, 9, 13, 24, 25, 26, 28, 29, 8, 10, 16, 17, 18, 19, 21, 24, 25, 2, 3, 7, 16, 18, 19, 23, 25, 27, 2, 4, 7, 9, 16, 18, 22, 24, 25, 1, 2, 3, 14, 16, 21, 23, 28, 30, 2, 6, 10, 11, 13, 16, 18, 20, 25, 11, 12, 13, 16, 17, 19, 24, 25, 26, 1, 8, 9, 10, 18, 19, 25, 26, 27, 1, 10, 11, 13, 14, 20, 22, 23, 24, 2, 5, 12, 13, 14, 15, 18, 19, 20, 3, 4, 12, 17, 18, 19, 22, 23, 27, 2, 9, 14, 19, 21, 22, 26, 28, 29, 4, 5, 12, 13, 21, 23, 27, 28, 29, 2, 3, 4, 5, 7, 8, 13, 14, 24, 2, 3, 4, 5, 6, 7, 8, 21, 23, 1, 2, 3, 9, 11, 17, 21, 28, 30, 1, 2, 3, 6, 9, 10, 23, 24, 25, 3, 5, 16, 17, 25, 26, 27, 28, 30, 2, 3, 5, 6, 7, 8, 15, 25, 30, 3, 6, 16, 20, 21, 22, 23, 27, 28, 3, 7, 11, 13, 15, 17, 18, 25, 26, 4, 9, 10, 12, 13, 14, 17, 27, 30, 4, 6, 9, 12, 16, 17, 18, 19, 25, 1, 4, 7, 10, 12, 15, 16, 18, 23, 3, 4, 8, 13, 14, 16, 19, 22, 24, 1, 3, 5, 9, 10, 22, 23, 25, 28, 1, 3, 4, 5, 7, 12, 20, 27, 29, 2, 3, 11, 14, 15, 16, 18, 29, 30, 8, 10, 12, 13, 14, 18, 19, 21, 29, 1, 2, 5, 13, 14, 16, 20, 25, 29, 4, 5, 7, 9, 11, 12, 13, 17, 21, 3, 6, 10, 11, 14, 22, 24, 28, 29, 7, 8, 8, 12, 15, 16, 17, 19, 30, 7, 13, 17, 18, 20, 23, 28, 29, 30, 3, 10, 11, 17, 18, 19, 20, 22, 23, 1, 2, 13, 17, 19, 20, 21, 23, 27, 2, 3, 7, 8, 13, 16, 25, 26, 27, 4, 8, 13, 18, 22, 24, 26, 29, 30, 1, 10, 11, 15, 18, 19, 20, 25, 29, 2, 3, 4, 8, 11, 21, 22, 28, 29, 3, 4, 5, 6, 7, 19, 20, 21, 22, 1, 2, 3, 9, 15, 21, 22, 23, 27, 4, 6, 10, 13, 16, 19, 23, 26, 29, 5, 7, 9, 12, 13, 18, 25, 26, 29, 2, 5, 6, 7, 8, 11, 15, 25, 27, 8, 9, 15, 20, 21, 23, 24, 25, 30, 3, 6, 7, 15, 19, 20, 23, 25, 29, 1, 5, 15, 16, 21, 23, 24, 27, 30, 3, 5, 9, 10, 12, 19, 25, 26, 29, 5, 8, 9, 12, 14, 15, 16, 17, 24, 2, 7, 9, 10, 11, 16, 23, 24, 25, 2, 3, 4, 7, 17, 22, 23, 26, 29, 7, 8, 9, 10, 17, 18, 19, 22, 30, 2, 6, 11, 11, 12, 15, 17, 18, 26, 2, 3, 5, 9, 11, 12, 19, 25, 26, 5, 8, 10, 11, 14, 16, 18, 19, 24, 7, 8, 14, 15, 16, 22, 23, 25, 28, 7, 15, 16, 19, 20, 21, 22, 28, 29, 1, 6, 15, 16, 17, 18, 19, 20, 27, 7, 9, 10, 11, 20, 21, 28, 29, 30, 4, 5, 6, 7, 8, 9, 10, 18, 27, 2, 5, 13, 14, 15, 16, 18, 25, 29, 1, 2, 3, 7, 19, 22, 25, 29, 30, 4, 5, 6, 9, 10, 11, 17, 22, 25, 1, 2, 5, 7, 8, 11, 21, 22, 27, 3, 7, 10, 15, 17, 18, 23, 24, 29, 4, 5, 6, 7, 15, 16, 17, 21, 24, 1, 2, 3, 7, 14, 17, 18, 24, 28, 3, 7, 14, 15, 18, 20, 21, 25, 26, 2, 16, 18, 19, 21, 24, 27, 28, 30, 4, 8, 11, 19, 20, 21, 22, 24, 26, 1, 2, 15, 16, 17, 17, 18, 26, 29, 1, 11, 15, 16, 17, 19, 20, 23, 28, 7, 9, 12, 18, 20, 21, 22, 25, 26, 1, 8, 11, 21, 22, 23, 24, 25, 27, 6, 11, 16, 17, 19, 20, 24, 26, 29, 3, 8, 15, 16, 21, 22, 23, 24, 26, 3, 5, 10, 20, 22, 23, 24, 26, 27, 1, 6, 7, 11, 16, 21, 22, 28, 29, 4, 7, 8, 9, 11, 15, 17, 19, 25, 1, 2, 4, 5, 10, 11, 19, 22, 25, 1, 2, 10, 12, 13, 16, 20, 28, 29];
rreq = [|4, 3, 3, 3, 3, 2, 2, 2, 2, 3, 3, 3, 3, 3, 3, 3, 3, 3, 2, 1, 1, 1, 1, 1, 1, 1, 1, 4, 3, 3, 3, 2, 2, 1, 1, 1, 1, 1, 1, 1, 1, 1, 1, 1, 1, 3, 3, 3, 3, 3, 3, 3, 3, 3, 4, 4, 4, 4, 3, 3, 2, 2, 2, 4, 4, 4, 4, 3, 3, 3, 3, 3, 3, 2, 2, 2, 2, 1, 1, 1, 1, 2, 2, 2, 2, 2, 2, 2, 2, 2, 4, 4, 4, 4, 4, 4, 4, 4, 4, 5, 4, 4, 4, 3, 3, 2, 2, 2, 5, 4, 4, 4, 4, 4, 4, 4, 4, 4, 4, 4, 4, 4, 4, 4, 4, 4, 3, 2, 2, 2, 2, 2, 2, 2, 2, 5, 4, 4, 4, 4, 3, 3, 3, 3, 3, 2, 2, 2, 2, 2, 2, 2, 2, 4, 4, 4, 4, 3, 3, 2, 2, 2, 4, 4, 4, 4, 4, 3, 3, 3, 3, 4, 3, 3, 3, 2, 2, 2, 2, 2, 4, 4, 3, 3, 3, 2, 1, 1, 1, 5, 4, 4, 4, 4, 3, 3, 3, 3, 3, 2, 2, 2, 2, 2, 2, 2, 2, 4, 4, 3, 3, 2, 2, 1, 1, 1, 5, 4, 4, 4, 3, 3, 3, 2, 2, 4, 4, 4, 4, 3, 3, 3, 2, 2, 5, 4, 4, 4, 4, 4, 4, 4, 4, 4, 4, 4, 4, 4, 4, 4, 4, 4, 3, 3, 3, 2, 2, 2, 1, 1, 1, 4, 4, 4, 3, 3, 3, 2, 2, 2, 3, 3, 3, 2, 2, 2, 2, 1, 1, 4, 4, 4, 4, 4, 4, 4, 4, 4, 1, 1, 1, 1, 1, 1, 1, 1, 1, 4, 3, 3, 3, 3, 3, 3, 3, 3, 2, 2, 2, 2, 2, 2, 2, 2, 2, 4, 4, 4, 3, 2, 2, 1, 1, 1, 3, 3, 3, 3, 3, 3, 3, 3, 3, 4, 3, 3, 3, 2, 2, 1, 1, 1, 4, 4, 4, 4, 4, 4, 4, 4, 4, 3, 3, 3, 3, 2, 2, 1, 1, 1, 4, 4, 4, 4, 4, 4, 4, 4, 4, 2, 2, 2, 2, 2, 1, 1, 1, 1, 4, 4, 4, 4, 3, 3, 3, 3, 3, 4, 4, 4, 4, 3, 3, 3, 3, 3, 4, 4, 4, 4, 4, 4, 4, 4, 4, 5, 4, 4, 4, 3, 3, 3, 2, 2, 3, 3, 3, 3, 3, 2, 2, 2, 2, 4, 3, 3, 3, 2, 2, 2, 2, 2, 5, 4, 4, 3, 2, 2, 2, 1, 1, 2, 1, 1, 1, 1, 1, 1, 1, 1, 2, 2, 2, 2, 2, 2, 2, 2, 2, 4, 4, 3, 3, 2, 2, 1, 1, 1, 5, 4, 4, 4, 3, 3, 3, 3, 3, 5, 4, 4, 4, 4, 4, 4, 4, 4, 5, 4, 4, 4, 4, 3, 3, 3, 3, 2, 2, 2, 2, 2, 2, 2, 2, 2, 2, 1, 1, 1, 1, 1, 1, 1, 1, 4, 4, 4, 4, 3, 3, 3, 3, 3, 4, 4, 4, 4, 4, 4, 4, 4, 4, 5, 4, 4, 4, 3, 3, 2, 2, 2, 2, 2, 2, 2, 2, 1, 1, 1, 1, 5, 4, 4, 4, 3, 3, 3, 3, 3, 3, 2, 2, 2, 2, 2, 2, 2, 2, 5, 5, 5, 5, 5, 5, 5, 5, 5, 3, 3, 3, 3, 3, 2, 2, 2, 2, 4, 3, 3, 3, 3, 3, 3, 3, 3, 4, 4, 4, 4, 4, 4, 4, 4, 4, 4, 4, 4, 4, 4, 4, 4, 4, 4, 5, 4, 3, 3, 3, 2, 2, 1, 1, 4, 4, 4, 4, 4, 4, 4, 4, 4, 1, 1, 1, 1, 1, 1, 1, 1, 1, 3, 2, 2, 2, 2, 2, 2, 2, 2, 5, 5, 5, 5, 5, 5, 5, 5, 5, 3, 3, 3, 3, 3, 2, 2, 2, 2, 2, 2, 2, 2, 2, 2, 2, 2, 2, 1, 1, 1, 1, 1, 1, 1, 1, 1, 3, 3, 3, 3, 2, 2, 1, 1, 1, 3, 3, 3, 3, 3, 3, 3, 3, 3, 2, 1, 1, 1, 1, 1, 1, 1, 1, 3, 2, 2, 2, 2, 1, 1, 1, 1, 4, 4, 4, 4, 3, 3, 3, 3, 3, 2, 2, 2, 2, 2, 2, 2, 2, 2, 5, 4, 3, 3, 3, 2, 1, 1, 1, 1, 1, 1, 1, 1, 1, 1, 1, 1, 1, 1, 1, 1, 1, 1, 1, 1, 1, 2, 2, 2, 2, 2, 1, 1, 1, 1, 3, 3, 3, 3, 3, 3, 3, 3, 3, 4, 4, 4, 4, 4, 4, 4, 4, 4, 5, 4, 4, 3, 2, 2, 2, 1, 1, 4, 4, 4, 4, 4, 3, 3, 3, 3, 3, 3, 3, 3, 3, 3, 3, 3, 3, 5, 4, 4, 3, 3, 2, 1, 1, 1, 4, 4, 4, 4, 3, 3, 3, 3, 3, 4, 3, 3, 3, 3, 2, 2, 2, 2, 3, 2, 2, 2, 2, 2, 2, 2, 2, 5, 4, 4, 4, 4, 4, 4, 4, 4, 5, 4, 4, 3, 3, 3, 2, 2, 2, 2, 1, 1, 1, 1, 1, 1, 1, 1, 4, 3, 3, 2, 2, 2, 1, 1, 1, 4, 3, 3, 3, 3, 3, 3, 3, 3
 |4, 3, 3, 3, 3, 3, 3, 3, 3, 4, 4, 4, 4, 4, 3, 3, 3, 3, 3, 3, 3, 3, 2, 2, 2, 2, 2, 4, 4, 4, 3, 3, 2, 2, 1, 1, 5, 4, 4, 3, 3, 2, 1, 1, 1, 4, 4, 3, 3, 3, 2, 2, 1, 1, 3, 2, 2, 2, 2, 2, 2, 2, 2, 5, 4, 3, 3, 2, 2, 1, 1, 1, 5, 5, 5, 5, 5, 5, 5, 5, 5, 4, 4, 4, 4, 4, 4, 4, 4, 4, 3, 2, 2, 2, 2, 1, 1, 1, 1, 4, 3, 3, 3, 3, 3, 3, 3, 3, 3, 3, 3, 3, 3, 3, 3, 3, 3, 2, 2, 2, 2, 2, 2, 2, 2, 2, 2, 1, 1, 1, 1, 1, 1, 1, 1, 1, 1, 1, 1, 1, 1, 1, 1, 1, 5, 4, 4, 4, 4, 3, 3, 3, 3, 5, 4, 4, 4, 4, 4, 4, 4, 4, 5, 4, 4, 4, 3, 3, 2, 2, 2, 4, 4, 4, 3, 3, 2, 1, 1, 1, 5, 5, 5, 5, 5, 5, 5, 5, 5, 5, 4, 4, 3, 3, 3, 2, 2, 2, 5, 4, 4, 4, 3, 3, 3, 3, 3, 5, 4, 4, 4, 3, 3, 3, 2, 2, 3, 3, 3, 3, 3, 3, 3, 3, 3, 4, 4, 3, 3, 3, 2, 1, 1, 1, 4, 4, 4, 4, 4, 3, 3, 3, 3, 4, 4, 4, 4, 3, 3, 3, 2, 2, 4, 3, 3, 3, 3, 3, 3, 3, 3, 3, 3, 3, 3, 3, 3, 3, 3, 3, 5, 4, 4, 4, 3, 3, 3, 3, 3, 5, 5, 5, 5, 5, 5, 5, 5, 5, 5, 4, 4, 4, 4, 3, 3, 3, 3, 4, 4, 4, 4, 4, 4, 4, 4, 4, 4, 3, 3, 3, 2, 2, 2, 2, 2, 4, 3, 3, 2, 2, 2, 2, 1, 1, 4, 4, 4, 4, 4, 4, 4, 4, 4, 5, 4, 4, 3, 2, 2, 1, 1, 1, 2, 2, 2, 2, 1, 1, 1, 1, 1, 3, 3, 3, 2, 2, 2, 2, 1, 1, 3, 3, 3, 3, 3, 3, 3, 3, 3, 3, 3, 3, 3, 2, 2, 1, 1, 1, 3, 3, 3, 3, 3, 3, 3, 3, 3, 1, 1, 1, 1, 1, 1, 1, 1, 1, 3, 3, 3, 3, 3, 2, 2, 2, 2, 1, 1, 1, 1, 1, 1, 1, 1, 1, 3, 2, 2, 2, 2, 2, 2, 2, 2, 5, 4, 4, 4, 3, 3, 3, 3, 3, 5, 4, 4, 4, 3, 3, 3, 2, 2, 5, 4, 4, 3, 3, 2, 2, 1, 1, 4, 4, 4, 4, 4, 4, 4, 4, 4, 4, 3, 3, 3, 3, 2, 2, 2, 2, 5, 4, 3, 3, 3, 2, 1, 1, 1, 5, 5, 5, 5, 5, 5, 5, 5, 5, 2, 1, 1, 1, 1, 1, 1, 1, 1, 2, 2, 2, 2, 1, 1, 1, 1, 1, 2, 1, 1, 1, 1, 1, 1, 1, 1, 1, 1, 1, 1, 1, 1, 1, 1, 1, 2, 1, 1, 1, 1, 1, 1, 1, 1, 4, 3, 3, 3, 3, 2, 2, 2, 2, 4, 4, 4, 4, 3, 3, 3, 3, 3, 4, 4, 4, 4, 4, 4, 4, 4, 4, 2, 2, 2, 2, 2, 2, 2, 2, 2, 2, 1, 1, 1, 1, 1, 1, 1, 1, 5, 4, 4, 4, 4, 4, 4, 4, 4, 1, 1, 1, 1, 1, 1, 1, 1, 1, 5, 4, 3, 3, 3, 2, 1, 1, 1, 5, 4, 4, 3, 3, 2, 1, 1, 1, 4, 4, 4, 4, 4, 4, 4, 4, 4, 3, 3, 3, 3, 2, 2, 2, 2, 2, 4, 3, 3, 3, 3, 2, 2, 2, 2, 2, 2, 2, 2, 2, 2, 2, 2, 2, 4, 3, 3, 2, 2, 2, 2, 1, 1, 3, 3, 3, 3, 3, 3, 3, 3, 3, 1, 1, 1, 1, 1, 1, 1, 1, 1, 1, 1, 1, 1, 1, 1, 1, 1, 1, 3, 3, 3, 3, 3, 2, 2, 2, 2, 5, 4, 4, 4, 3, 3, 3, 2, 2, 5, 4, 4, 4, 4, 4, 4, 4, 4, 3, 3, 3, 3, 2, 2, 2, 2, 2, 1, 1, 1, 1, 1, 1, 1, 1, 1, 2, 1, 1, 1, 1, 1, 1, 1, 1, 3, 2, 2, 2, 2, 2, 2, 2, 2, 2, 2, 2, 2, 2, 1, 1, 1, 1, 4, 4, 3, 3, 2, 2, 2, 1, 1, 2, 2, 2, 2, 2, 2, 2, 2, 2, 1, 1, 1, 1, 1, 1, 1, 1, 1, 3, 3, 3, 3, 3, 3, 3, 3, 3, 5, 5, 5, 5, 5, 5, 5, 5, 5, 5, 4, 3, 3, 2, 2, 2, 1, 1, 4, 3, 3, 3, 3, 3, 3, 3, 3, 4, 4, 4, 4, 3, 3, 3, 2, 2, 5, 5, 5, 5, 5, 5, 5, 5, 5, 4, 4, 4, 4, 3, 3, 3, 3, 3, 5, 5, 5, 5, 5, 5, 5, 5, 5, 5, 4, 4, 4, 4, 3, 3, 3, 3, 5, 4, 4, 3, 3, 3, 3, 2, 2, 3, 2, 2, 2, 2, 2, 2, 2, 2, 2, 1, 1, 1, 1, 1, 1, 1, 1, 1, 1, 1, 1, 1, 1, 1, 1, 1
 |22, 19, 17, 15, 13, 13, 11, 10, 8, 27, 24, 24, 21, 20, 16, 16, 12, 10, 27, 23, 19, 17, 14, 11, 9, 7, 6, 15, 15, 13, 13, 11, 11, 9, 8, 7, 10, 9, 7, 7, 6, 5, 4, 3, 2, 26, 25, 25, 25, 24, 24, 24, 23, 23, 21, 21, 21, 20, 20, 20, 19, 19, 19, 13, 10, 10, 8, 7, 7, 6, 5, 3, 18, 18, 18, 18, 17, 17, 17, 16, 16, 13, 12, 10, 10, 9, 7, 7, 5, 4, 26, 24, 23, 21, 19, 15, 14, 11, 10, 17, 15, 14, 13, 11, 9, 8, 5, 5, 20, 20, 17, 13, 13, 8, 7, 3, 1, 25, 22, 20, 20, 18, 14, 12, 11, 10, 15, 14, 14, 14, 13, 13, 13, 13, 13, 30, 29, 28, 27, 26, 26, 24, 23, 23, 15, 14, 13, 12, 12, 12, 11, 10, 9, 9, 8, 8, 8, 7, 6, 5, 4, 4, 20, 19, 19, 18, 18, 17, 17, 16, 16, 24, 23, 23, 22, 22, 22, 21, 21, 21, 10, 8, 8, 6, 6, 5, 4, 3, 3, 12, 12, 12, 12, 12, 12, 12, 12, 12, 29, 27, 27, 26, 25, 24, 24, 22, 22, 25, 20, 18, 17, 16, 12, 10, 8, 5, 1, 1, 1, 1, 1, 1, 1, 1, 1, 3, 3, 3, 2, 2, 2, 2, 1, 1, 29, 28, 28, 27, 26, 26, 25, 25, 25, 5, 5, 5, 4, 4, 3, 2, 2, 2, 23, 22, 22, 22, 22, 22, 22, 22, 22, 28, 28, 28, 28, 28, 28, 28, 28, 28, 25, 25, 23, 22, 20, 19, 18, 18, 16, 19, 15, 15, 13, 11, 7, 5, 3, 1, 18, 17, 17, 17, 16, 15, 15, 14, 14, 25, 24, 23, 22, 22, 21, 21, 20, 20, 30, 28, 28, 27, 26, 26, 25, 23, 23, 12, 11, 10, 9, 9, 8, 8, 7, 7, 23, 21, 20, 18, 16, 16, 13, 11, 10, 14, 13, 13, 13, 12, 12, 12, 12, 12, 14, 14, 14, 13, 13, 13, 13, 12, 12, 10, 9, 9, 9, 9, 8, 8, 8, 8, 28, 27, 25, 21, 19, 18, 15, 12, 12, 19, 17, 15, 13, 13, 11, 9, 7, 6, 19, 19, 19, 19, 19, 19, 19, 19, 19, 14, 14, 13, 12, 12, 11, 10, 9, 9, 14, 13, 13, 12, 12, 11, 10, 9, 9, 20, 20, 20, 20, 20, 20, 20, 20, 20, 8, 8, 8, 8, 7, 7, 7, 6, 6, 26, 25, 25, 25, 24, 24, 23, 23, 22, 29, 26, 25, 24, 23, 23, 22, 20, 20, 7, 5, 5, 4, 4, 3, 2, 2, 1, 26, 26, 25, 24, 24, 24, 23, 22, 22, 5, 4, 4, 4, 3, 3, 2, 2, 2, 7, 6, 6, 6, 6, 6, 6, 6, 6, 17, 17, 17, 16, 16, 15, 15, 14, 14, 24, 24, 23, 23, 22, 22, 21, 21, 21, 11, 10, 9, 9, 8, 8, 8, 7, 7, 10, 9, 8, 7, 7, 7, 6, 5, 5, 27, 27, 27, 27, 26, 26, 26, 26, 26, 13, 12, 10, 8, 8, 7, 5, 4, 2, 25, 22, 19, 19, 15, 14, 12, 9, 9, 16, 13, 12, 9, 8, 7, 6, 3, 1, 20, 18, 17, 17, 16, 15, 14, 13, 12, 27, 26, 25, 23, 21, 19, 17, 16, 16, 21, 17, 16, 16, 13, 13, 10, 10, 8, 28, 27, 26, 26, 24, 24, 24, 22, 22, 5, 5, 5, 5, 4, 4, 4, 3, 3, 20, 17, 17, 14, 13, 12, 10, 9, 8, 26, 24, 22, 19, 15, 13, 12, 9, 8, 23, 22, 21, 19, 18, 18, 17, 15, 15, 27, 26, 26, 25, 25, 24, 23, 23, 23, 29, 28, 27, 27, 26, 25, 24, 23, 23, 25, 23, 21, 17, 17, 14, 12, 9, 9, 23, 20, 19, 17, 17, 15, 13, 11, 11, 21, 20, 17, 14, 12, 10, 9, 7, 6, 7, 7, 6, 6, 6, 5, 5, 4, 4, 18, 15, 15, 13, 13, 10, 9, 9, 7, 28, 27, 27, 27, 26, 26, 26, 26, 26, 26, 26, 26, 25, 24, 24, 24, 23, 23, 11, 10, 10, 10, 9, 9, 9, 9, 9, 16, 16, 16, 16, 16, 15, 15, 15, 15, 19, 18, 18, 18, 16, 16, 16, 14, 14, 17, 15, 15, 14, 13, 12, 11, 10, 10, 23, 23, 23, 23, 23, 22, 22, 22, 22, 15, 14, 14, 13, 13, 12, 12, 10, 10, 26, 24, 22, 18, 17, 15, 13, 9, 9, 18, 17, 16, 15, 15, 13, 13, 11, 11, 25, 21, 21, 16, 14, 11, 9, 4, 3, 17, 16, 14, 14, 12, 11, 11, 10, 9, 29, 27, 27, 26, 25, 25, 24, 24, 23, 12, 10, 10, 10, 8, 8, 8, 6, 6, 4, 4, 4, 3, 3, 3, 3, 2, 2, 8, 6, 6, 5, 5, 4, 4, 3, 2, 10, 10, 10, 10, 10, 9, 9, 9, 9, 18, 18, 18, 17, 17, 17, 17, 16, 16, 24, 21, 19, 16, 14, 12, 8, 8, 6, 24, 22, 20, 19, 17, 17, 14, 13, 13, 15, 14, 14, 13, 10, 9, 9, 7, 6, 20, 19, 17, 15, 14, 12, 11, 9, 8, 24, 21, 19, 19, 16, 15, 14, 13, 11, 22, 20, 19, 18, 18, 15, 15, 13, 13
 |22, 21, 21, 20, 20, 20, 19, 18, 18, 27, 26, 25, 26, 26, 26, 25, 25, 25, 27, 25, 23, 22, 22, 19, 19, 17, 16, 22, 21, 20, 16, 15, 13, 13, 11, 8, 28, 26, 24, 24, 21, 20, 20, 18, 18, 19, 18, 19, 18, 18, 18, 17, 18, 17, 23, 21, 20, 19, 17, 16, 15, 14, 12, 27, 23, 20, 18, 17, 15, 12, 8, 5, 25, 24, 23, 22, 21, 21, 20, 20, 19, 17, 15, 15, 14, 12, 11, 9, 9, 8, 12, 11, 11, 10, 10, 10, 9, 8, 8, 19, 17, 15, 15, 12, 10, 9, 8, 5, 23, 22, 22, 22, 21, 21, 20, 19, 19, 27, 23, 22, 20, 17, 14, 13, 9, 9, 29, 29, 28, 27, 29, 28, 27, 26, 25, 29, 27, 24, 21, 19, 16, 15, 12, 10, 13, 13, 13, 13, 12, 12, 11, 11, 11, 26, 25, 24, 23, 25, 25, 25, 25, 24, 22, 21, 20, 21, 20, 20, 19, 20, 19, 22, 21, 20, 20, 19, 17, 17, 16, 15, 7, 6, 6, 4, 3, 3, 2, 2, 1, 23, 21, 19, 14, 13, 11, 7, 4, 3, 26, 26, 23, 19, 18, 13, 12, 10, 7, 26, 22, 21, 16, 14, 12, 9, 5, 2, 21, 18, 15, 13, 11, 10, 7, 6, 4, 23, 22, 22, 22, 21, 20, 19, 18, 17, 7, 8, 7, 7, 7, 7, 7, 6, 5, 9, 8, 7, 6, 5, 4, 3, 2, 1, 10, 9, 8, 7, 6, 5, 4, 3, 2, 30, 29, 28, 30, 29, 28, 30, 29, 28, 9, 9, 7, 7, 6, 5, 5, 4, 3, 23, 22, 21, 20, 20, 19, 19, 19, 18, 22, 21, 20, 18, 18, 16, 15, 14, 13, 27, 26, 24, 23, 22, 22, 20, 20, 19, 20, 19, 17, 17, 15, 14, 13, 11, 9, 16, 13, 11, 9, 7, 7, 6, 3, 2, 9, 8, 8, 8, 8, 7, 7, 7, 7, 23, 22, 20, 19, 19, 18, 17, 16, 15, 20, 19, 18, 19, 19, 18, 17, 19, 18, 24, 24, 20, 18, 18, 15, 14, 11, 10, 24, 23, 23, 22, 20, 19, 17, 15, 14, 12, 12, 12, 11, 10, 10, 9, 9, 9, 15, 14, 13, 12, 12, 11, 10, 9, 8, 13, 11, 9, 8, 7, 6, 4, 4, 2, 27, 27, 26, 27, 26, 27, 27, 27, 26, 24, 22, 18, 17, 14, 10, 9, 6, 5, 16, 15, 12, 10, 9, 6, 4, 4, 1, 20, 18, 16, 14, 13, 12, 8, 7, 6, 24, 21, 18, 17, 14, 11, 10, 4, 3, 23, 22, 21, 22, 21, 22, 22, 22, 22, 19, 18, 19, 18, 17, 16, 16, 16, 15, 30, 29, 29, 28, 29, 29, 30, 29, 28, 13, 12, 11, 9, 9, 8, 8, 6, 5, 16, 14, 13, 14, 12, 12, 11, 11, 10, 21, 21, 19, 18, 17, 15, 14, 13, 12, 27, 24, 22, 21, 17, 16, 14, 11, 9, 26, 25, 22, 16, 13, 12, 9, 4, 3, 23, 22, 21, 20, 18, 17, 16, 15, 14, 28, 24, 22, 22, 19, 17, 15, 13, 12, 26, 21, 18, 16, 14, 11, 10, 6, 4, 16, 13, 12, 10, 9, 7, 5, 5, 3, 5, 5, 4, 3, 3, 3, 2, 2, 2, 29, 27, 25, 23, 21, 17, 15, 15, 13, 19, 19, 18, 17, 17, 16, 16, 14, 14, 19, 19, 16, 15, 13, 11, 10, 8, 7, 10, 8, 7, 6, 6, 5, 3, 3, 2, 14, 13, 12, 12, 11, 10, 9, 7, 6, 20, 18, 18, 16, 15, 14, 13, 12, 12, 18, 16, 15, 14, 12, 11, 11, 9, 8, 29, 26, 25, 21, 19, 17, 17, 15, 13, 20, 18, 18, 16, 15, 15, 14, 12, 11, 12, 12, 12, 13, 12, 12, 12, 12, 11, 21, 20, 18, 18, 17, 17, 16, 15, 14, 25, 25, 25, 24, 24, 24, 24, 23, 23, 15, 12, 10, 9, 8, 6, 4, 3, 2, 15, 16, 15, 14, 13, 14, 14, 13, 13, 6, 6, 5, 4, 3, 3, 3, 2, 1, 16, 16, 14, 13, 10, 9, 6, 5, 4, 14, 13, 12, 10, 9, 8, 5, 4, 3, 11, 10, 9, 8, 8, 8, 7, 6, 5, 14, 13, 11, 10, 10, 9, 8, 7, 6, 29, 28, 26, 26, 25, 23, 22, 22, 20, 24, 21, 20, 17, 14, 11, 10, 7, 5, 28, 26, 25, 24, 21, 19, 18, 17, 15, 24, 22, 21, 20, 18, 14, 14, 10, 8, 27, 25, 25, 25, 24, 23, 22, 23, 22, 27, 26, 23, 20, 20, 18, 17, 15, 12, 25, 21, 18, 17, 12, 12, 8, 3, 3, 21, 21, 20, 19, 17, 15, 13, 12, 12, 27, 27, 28, 27, 26, 27, 26, 26, 25, 29, 26, 23, 19, 18, 15, 12, 10, 7, 11, 9, 8, 8, 6, 5, 4, 4, 3, 26, 23, 19, 18, 17, 14, 11, 10, 8, 30, 29, 28, 27, 26, 25, 23, 23, 21, 21, 21, 19, 17, 13, 11, 10, 5, 4, 9, 9, 8, 8, 7, 6, 6, 5, 4, 26, 25, 24, 23, 22, 22, 21, 19, 19, 16, 13, 12, 11, 10, 9, 8, 5, 5, 20, 20, 20, 20, 20, 19, 19, 19, 19, 11, 10, 10, 8, 7, 7, 5, 5, 4|];